p cnf 10 27
-2 0
10 5 0
2 -9 0
9 -6 -4 -9 0
2 -3 0
3 -4 0
-7 0
2 -3 0
-7 10 0
1 3 -3 6 0
-8 -9 0
-8 -1 7 0
10 0
-7 3 -9 0
1 -3 -7 0
2 0
-8 0
-6 -5 -1 0
-10 6 0
2 4 0
-3 0
8 -6 7 0
1 -5 0
-6 2 3 -4 0
9 4 0
5 6 -10 0
-8 9 6 0
